%mem=20GB
%NProcShared=10
#P b3lyp/cc-pvdz
# SCF=(xqc)
# Freq=()
# IOp(7/33=1)
# int=ultrafine

comment: 

0 2
H    0.000000   0.000000   0.000000
  Variables:

