%mem=20GB
%NProcShared=10
#P b3lyp/6-31g*
# SCF=(xqc)
# Freq=()
# IOp(7/33=1)
# int=ultrafine

comment: 

0 1
O    0.718489   0.118182  -0.054354
O   -0.718489  -0.118182  -0.054354
H    1.013417  -0.670304   0.434834
H   -1.013417   0.670304   0.434834
  Variables:

