%mem=20GB
%NProcShared=10
#P b3lyp/6-31g*
# SCF=(xqc)
# POpt=(calcfc)
# int=ultrafine

comment: 

0 2
C  
H  1    R1 
H  1    R2  2    A2 
H  1    R3  2    A3  3    D3 
H  1    R4  2    A4  3    D4 
X  5    R5  1    A5  2    D5 
H  5    R6  6    A6  1    D6 
  Variables:
R1       1.082800
R2       1.082800
A2     119.914700
R3       1.082800
A3     119.916600
D3     174.268900
R4       2.567200
A4      91.184600
D4     267.488200
A6      90.193300
D6     179.835500
  Constants:
A5      90.000000
D5     180.000000
R5       1.000000
R6       0.882900

