#! 
memory 1 GB

molecule {

0 1
H  
H  1    R1 
R1   =   0.710928
}
set basis cc-pvdz
set scf_type pk
set reference rks
set mp2_type conv
optimize('B3LYP')
