#! 
memory 1 GB

molecule {

0 1
O  
H  1    R1 
H  1    R2  2    A2 
R1   =   0.968998
R2   =   0.969003
A2   = 103.978000
}
set basis cc-pvdz
set scf_type pk
set reference rks
set mp2_type conv
optimize('B3LYP')
