%mem=20GB
%NProcShared=10
#P b3lyp/6-31g*
# SCF=(xqc)
# Freq=()
# IOp(7/33=1)
# int=ultrafine

comment: 

0 1
C    0.000000   0.000000   0.000000
H    0.631216   0.631216   0.631216
H   -0.631216  -0.631216   0.631216
H   -0.631216   0.631216  -0.631216
H    0.631216  -0.631216  -0.631216
  Variables:

