%mem=20GB
%NProcShared=10
#P b3lyp/6-31g*
# SCF=(xqc)
# Freq=()
# IOp(7/33=1)
# int=ultrafine

comment: 

0 2
C    0.000000   0.000000   0.000000
H    0.000000   1.082548  -0.000000
H    0.937514  -0.541274  -0.000000
H   -0.937514  -0.541274  -0.000000
  Variables:

