%mem=20GB
%NProcShared=10
#P b3lyp/cc-pvdz
# SCF=(xqc)
# Freq=()
# IOp(7/33=1)
# int=ultrafine

comment: 

0 2
C    0.000000   0.000000   0.000000
H    0.000000   1.091180  -0.000000
H    0.944989  -0.545590  -0.000000
H   -0.944989  -0.545590   0.000000
  Variables:

