%mem=20GB
%NProcShared=10
#P b3lyp/6-31g*
# SCF=(xqc)
# Freq=()
# IOp(7/33=1)
# int=ultrafine

comment: 

0 1
O    0.000000   0.119788   0.000000
H    0.761186  -0.479154   0.000000
H   -0.761186  -0.479154   0.000000
  Variables:

