%mem=20GB
%NProcShared=10
#P b3lyp/6-31g*
# SCF=(xqc)
# POpt=()
# int=ultrafine

comment: 

0 2
C  
H  1    R1 
H  1    R2  2    A2 
H  1    R3  2    A3  3    D3 
H  1    R4  2    A4  3    D4 
X  5    R5  1    A5  2    D5 
H  5    R6  6    A6  1    D6 
  Variables:
R1       1.095800
R2       1.081100
A2     120.223400
R3       1.081000
A3     120.225900
D3     175.793000
R4       2.684800
A4      90.328200
D4     268.579400
A6      90.241500
D6     179.783300
  Constants:
A5      90.000000
D5     180.000000
R5       1.000000
R6       0.882900

