#! 
memory 1 GB

molecule {

0 1
C    0.000000  -0.000000   0.000000
H    0.000000   1.093298   0.000000
H   -0.515388  -0.364429   0.892673
H   -0.515388  -0.364429  -0.892673
H    1.030770  -0.364434   0.000000
}
set basis 6-31g*
set scf_type pk
set reference rks
set mp2_type conv
_, wfn = frequency('B3LYP', return_wfn=True)
hess = wfn.hessian()
hess.name = 'Hessian'
hess.print_out()
