%mem=20GB
%NProcShared=10
#P b3lyp/6-31g*
# SCF=(xqc)
# POpt=()
# int=ultrafine

comment: 

0 1
O  
H  1    R1 
H  1    R2  2    A2 
  Variables:
R1       0.968998
R2       0.969003
A2     103.978000

