%mem=1GB

#P b3lyp/cc-pvdz
# SCF=(xqc)
# POpt=(CALCFC,TS,NOEIGEN)

comment: 

0 2
C    0.271940  -0.000008  -0.000023
H    0.519741  -0.865742  -0.611241
H    0.521231  -0.096704   1.054967
H    0.521016   0.961889  -0.444082
H   -1.151535   0.000515   0.000259
H   -2.042095   0.000091   0.000237
  Variables:

