#! 
memory 1 GB

molecule {

0 1
C    0.000000  -0.000001   0.000000
H    0.000000   1.100141   0.000000
H   -0.518614  -0.366711   0.898261
H   -0.518614  -0.366711  -0.898261
H    1.037223  -0.366713   0.000000
}
set basis cc-pvdz
set scf_type pk
set reference rks
set mp2_type conv
_, wfn = frequency('B3LYP', return_wfn=True)
hess = wfn.hessian()
hess.name = 'Hessian'
hess.print_out()
