%mem=20GB
%NProcShared=10
#P b3lyp/6-31g*
# SCF=(xqc)
# POpt=()
# int=ultrafine

comment: 

0 1
O  
O  1    R1 
H  1    R2  2    A2 
H  2    R3  1    A3  3    D3 
  Variables:
R1       1.454052
R2       0.976073
A2      96.772900
R3       0.976073
A3      96.772800
D3     129.368000

