#! 
memory 1 GB

molecule {

0 1
N   -0.055520  -0.039486  -0.030678
H   -0.055520  -0.039486   0.994087
H   -0.055520   0.953503  -0.283912
H    0.882460  -0.365385  -0.283925
}
set basis cc-pvdz
set scf_type pk
set reference rks
set mp2_type conv
_, wfn = frequency('B3LYP', return_wfn=True)
hess = wfn.hessian()
hess.name = 'Hessian'
hess.print_out()
