%mem=20GB
%NProcShared=10
#P b3lyp/6-31g*
# SCF=(xqc)
# POpt=()
# int=ultrafine

comment: 

0 2
C  
H  1    R1 
H  1    R2  2    A2 
H  1    R3  2    A3  3    D3 
H  1    R4  2    A4  3    D4 
X  5    R5  1    A5  2    D5 
H  5    R6  6    A6  1    D6 
  Variables:
R1       1.070000
R2       1.096800
A2     119.214900
R3       1.096000
A3     119.214100
D3     190.389200
R4       2.642000
A4      87.225000
D4     277.099000
A6     114.056300
D6     179.918900
  Constants:
A5      90.000000
D5     180.000000
R5       1.000000
R6       0.882900

